DATASET = "thpack7";
INSTANCE = "100";

WIDTH = 233;
HEIGHT = 220;
LENGTH = 587;

NO_OF_SHAPES = 20;
size = [|
  78,49,47 |
  46,45,43 |
  98,44,36 |
  100,89,31 |
  108,76,47 |
  75,36,28 |
  108,82,56 |
  45,41,24 |
  103,48,38 |
  74,62,46 |
  96,56,44 |
  117,64,42 |
  73,71,50 |
  61,48,47 |
  91,49,27 |
  78,77,28 |
  119,78,34 |
  106,78,63 |
  82,68,62 |
  100,73,53 |
|];

verticality = [|
  1,1,1 |
  1,1,1 |
  0,1,1 |
  0,0,1 |
  0,1,1 |
  0,1,1 |
  1,1,1 |
  1,1,1 |
  0,1,1 |
  1,1,1 |
  0,1,1 |
  0,1,1 |
  1,1,1 |
  1,1,1 |
  0,1,1 |
  0,0,1 |
  0,0,1 |
  1,1,1 |
  1,1,1 |
  1,1,1 |
|];

box_count = [
  6,
  4,
  4,
  8,
  6,
  6,
  5,
  4,
  8,
  7,
  11,
  4,
  9,
  3,
  9,
  7,
  3,
  6,
  6,
  6,
];
